RT is False
Default write of storage_offers_DA.csv just to have a file (but constraint should be inactive)
Reading model...
...model read.
creating competitive generators file...
...competitive generators recorded.
Loading data...
.. day-ahead data with real-time VRE data read.
Compiling instance...
...instance created.
Creating Offer Mitigation (model will solve as dispatch if TRUE)...
Solving...

Welcome to IBM(R) ILOG(R) CPLEX(R) Interactive Optimizer 12.9.0.0
  with Simplex, Mixed Integer & Barrier Optimizers
5725-A06 5725-A29 5724-Y48 5724-Y49 5724-Y54 5724-Y55 5655-Y21
Copyright IBM Corp. 1988, 2019.  All Rights Reserved.

Type 'help' for a list of available commands.
Type 'help' followed by a command name for more
information on commands.

CPLEX> Logfile 'cplex.log' closed.
Logfile 'C:\Users\llavin\Desktop\test919\logs\tmp3780efw5.cplex.log' open.
CPLEX> New value for parallel optimization mode: -1
CPLEX> New value for mixed integer optimality gap tolerance: 0.01
CPLEX> New value for integrality tolerance: 1e-09
CPLEX> New value for feasibility tolerance: 0.01
CPLEX> New value for deterministic time limit in ticks: 75000
CPLEX> Problem 'C:\Users\llavin\Desktop\test919\logs\tmpz72vwvni.pyomo.lp' read.
Read time = 0.05 sec. (3.04 ticks)
CPLEX> Problem name         : C:\Users\llavin\Desktop\test919\logs\tmpz72vwvni.pyomo.lp
Objective sense      : Minimize
Variables            :   26081  [Nneg: 1,  Box: 21616,  Free: 4464]
Objective nonzeros   :    2496
Linear constraints   :   27515  [Less: 14006,  Greater: 4416,  Equal: 9093]
  Nonzeros           :   89219
  RHS nonzeros       :   12271

Variables            : Min LB: -5000.000        Max UB: 1000000.       
Objective nonzeros   : Min   : 15.73158         Max   : 124.0997       
Linear constraints   :
  Nonzeros           : Min   : 0.8500000        Max   : 3000.000       
  RHS nonzeros       : Min   : 0.7833333        Max   : 5000.000       
CPLEX> CPXPARAM_Parallel                                -1
CPXPARAM_Simplex_Tolerances_Feasibility          0.01
CPXPARAM_DetTimeLimit                            75000
CPXPARAM_MIP_Tolerances_MIPGap                   0.01
CPXPARAM_MIP_Tolerances_Integrality              1.0000000000000001e-09
Parallel mode: opportunistic, using up to 32 threads for concurrent optimization.
Tried aggregator 1 time.
LP Presolve eliminated 21377 rows and 15487 columns.
Aggregator did 745 substitutions.
Reduced LP has 5393 rows, 9849 columns, and 31790 nonzeros.
Presolve time = 0.06 sec. (30.20 ticks)
Symmetry aggregator did 5563 additional substitutions.

Iteration log . . .
Iteration:     1   Dual objective     =             0.000000
Perturbation started.
Iteration:   101   Dual objective     =             0.000000
Iteration:   338   Dual objective     =             1.262346
Iteration:   613   Dual objective     =             1.963822
Iteration:   868   Dual objective     =             2.112956
Iteration:  1061   Dual objective     =             2.228404
Iteration:  1330   Dual objective     =             2.279130
Iteration:  1580   Dual objective     =             2.309491
Iteration:  1798   Dual objective     =         18505.040292
Iteration:  2009   Dual objective     =        265154.186471
Iteration:  2201   Dual objective     =        362979.900769
Iteration:  2401   Dual objective     =        371796.157790
Iteration:  2693   Dual objective     =        375733.976180
Iteration:  3111   Dual objective     =        376083.493165
Removing perturbation.

Dual crossover.
  Dual:  Fixing 7 variables.
        6 DMoves:  Infeasibility  1.74082970e-13  Objective  3.76081084e+05
        0 DMoves:  Infeasibility  4.26325641e-14  Objective  3.76081084e+05
  Dual:  Pushed 3, exchanged 4.
  Primal:  Fixing 5 variables.
Using devex.

Primal simplex solved model.


Primal simplex - Optimal:  Objective =  3.7608108431e+05
Solution time =    0.16 sec.  Iterations = 1696 (1031)
Deterministic time = 84.34 ticks  (537.17 ticks/sec)

CPLEX> Solution written to file 'C:\Users\llavin\Desktop\test919\logs\tmpgxe2se_o.cplex.sol'.
CPLEX> Exporting results... 
...storage offer mitigation file created
Converting model to MPEC...
...converted
NOTE: initial MIP solve with only storage competitive to get feasible solution
Solving...

Welcome to IBM(R) ILOG(R) CPLEX(R) Interactive Optimizer 12.9.0.0
  with Simplex, Mixed Integer & Barrier Optimizers
5725-A06 5725-A29 5724-Y48 5724-Y49 5724-Y54 5724-Y55 5655-Y21
Copyright IBM Corp. 1988, 2019.  All Rights Reserved.

Type 'help' for a list of available commands.
Type 'help' followed by a command name for more
information on commands.

CPLEX> Logfile 'cplex.log' closed.
Logfile 'C:\Users\llavin\Desktop\test919\logs\tmpp_ol3ggn.cplex.log' open.
CPLEX> New value for parallel optimization mode: -1
CPLEX> New value for mixed integer optimality gap tolerance: 0.01
CPLEX> New value for integrality tolerance: 1e-09
CPLEX> New value for feasibility tolerance: 0.01
CPLEX> New value for deterministic time limit in ticks: 75000
CPLEX> Problem 'C:\Users\llavin\Desktop\test919\logs\tmp_bo2i5bn.pyomo.lp' read.
Read time = 0.23 sec. (14.78 ticks)
CPLEX> Problem name         : C:\Users\llavin\Desktop\test919\logs\tmp_bo2i5bn.pyomo.lp
Objective sense      : Maximize
Variables            :   53805  [Nneg: 1,  Box: 22000,  Free: 4464,
                                 Binary: 27340]
Objective nonzeros   :    9029
Linear constraints   :  123205  [Less: 41346,  Greater: 59096,  Equal: 22763]
  Nonzeros           :  291753
  RHS nonzeros       :   67491

Variables            : Min LB: -5000.000        Max UB: 1000000.       
Objective nonzeros   : Min   : 0.7833333        Max   : 2500.000       
Linear constraints   :
  Nonzeros           : Min   : 0.7833333        Max   : 1000000.       
  RHS nonzeros       : Min   : 0.7833333        Max   : 1000000.       
CPLEX> CPXPARAM_Parallel                                -1
CPXPARAM_Simplex_Tolerances_Feasibility          0.01
CPXPARAM_DetTimeLimit                            75000
CPXPARAM_MIP_Tolerances_MIPGap                   0.01
CPXPARAM_MIP_Tolerances_Integrality              1.0000000000000001e-09
Tried aggregator 3 times.
MIP Presolve eliminated 88722 rows and 19046 columns.
MIP Presolve added 3372 rows and 0 columns.
MIP Presolve modified 24845 coefficients.
Aggregator did 12970 substitutions.
Reduced MIP has 24885 rows, 21233 columns, and 70971 nonzeros.
Reduced MIP has 8392 binaries, 0 generals, 0 SOSs, and 0 indicators.
Presolve time = 0.28 sec. (173.50 ticks)
Probing fixed 386 vars, tightened 2831 bounds.
Probing time = 1.22 sec. (898.25 ticks)
Tried aggregator 2 times.
MIP Presolve eliminated 869 rows and 774 columns.
MIP Presolve modified 2213 coefficients.
Aggregator did 43 substitutions.
Reduced MIP has 23973 rows, 20416 columns, and 68320 nonzeros.
Reduced MIP has 8006 binaries, 0 generals, 0 SOSs, and 0 indicators.
Presolve time = 0.11 sec. (67.44 ticks)
Probing time = 0.05 sec. (16.12 ticks)
Clique table members: 6356.
MIP emphasis: balance optimality and feasibility.
MIP search method: dynamic search.
Parallel mode: opportunistic, using up to 32 threads.
Root relaxation solution time = 0.38 sec. (286.92 ticks)

        Nodes                                         Cuts/
   Node  Left     Objective  IInf  Best Integer    Best Bound    ItCnt     Gap

      0     0     1181.9851  2059                   1181.9851     6921         
      0     0     1173.5184    34                    Cuts: 20     6933         
      0     0     1173.5184    28                    Cuts: 11     6942         
      0     0     1173.5184    28                 Impl Bds: 1     6942         
      0     2     1173.5184     4                     Cuts: 2     6942         
Elapsed time = 8.83 sec. (4902.21 ticks, tree = 0.02 MB, solutions = 0)
    319    56     1171.0336     2                   1173.5184     7302         
*   355+  142                         -236.4031     1173.5184           596.41%
    546   139        cutoff           -236.4031     1173.5184     7698  596.41%
    692   168        cutoff           -236.4031     1173.5184     7954  596.41%
    839   179        cutoff           -236.4031     1173.5184     7991  596.41%
    977   212     1164.4815     3     -236.4031     1173.5184     8146  596.41%
   1093   227     1173.0280     1     -236.4031     1173.5184     8226  596.41%
   1254   264     1170.4671     6     -236.4031     1173.5184     8366  596.41%
   1421   323     1167.3416     1     -236.4031     1173.5184     8567  596.41%
   2228   838     1173.0280     2     -236.4031     1173.5184    11185  596.41%
Elapsed time = 18.94 sec. (7833.54 ticks, tree = 3.75 MB, solutions = 1)
   2645   998     1173.3273     4     -236.4031     1173.5184    12100  596.41%
   3157  1236        cutoff           -236.4031     1173.5184    13517  596.41%
   3576  1249     1173.3273     1     -236.4031     1173.5184    13562  596.41%
   3883  1494        cutoff           -236.4031     1173.5184    14825  596.41%
   4121  1438        cutoff           -236.4031     1173.5184    14371  596.41%
   4332  1450        cutoff           -236.4031     1173.5184    14477  596.41%
   4560  1704        cutoff           -236.4031     1173.5184    15789  596.41%
   4793  1692        cutoff            818.6452     1173.5184    15579   43.35%
   4971  1658     1160.5940     1      818.6452     1173.5184    15431   43.35%
   5144  1645        cutoff            818.6452     1173.5184    16000   43.35%
Elapsed time = 37.05 sec. (17410.35 ticks, tree = 7.59 MB, solutions = 2)
   5386  1651        cutoff            818.6452     1173.5184    16027   43.35%
   5632  1637      951.4838     2      818.6452     1173.5184    16008   43.35%
   5930  1698     1170.4672     1      818.6452     1173.5184    16354   43.35%
   6212  1751        cutoff            818.6452     1173.5184    16757   43.35%
   6420  1757      887.5103     1      818.6452     1173.5184    16839   43.35%
   6605  1853        cutoff            818.6452     1173.5184    17666   43.35%
   6781  1934        cutoff            818.6452     1173.5184    18838   43.35%
   6955  1900        cutoff            818.6452     1173.5184    18502   43.35%
   7161  1933     1039.6505     1      818.6452     1173.5184    18816   43.35%
   7347  1959        cutoff            818.6452     1173.5184    19000   43.35%
Elapsed time = 49.69 sec. (26986.49 ticks, tree = 10.33 MB, solutions = 2)
   7527  2018     1173.3273     1      818.6452     1173.5184    19362   43.35%
   7745  2032     1095.5053     3      818.6452     1173.5184    19369   43.35%
   7985  2062     1039.6505     1      818.6452     1173.5184    19587   43.35%
   8218  2098     1170.4672     1      818.6452     1173.5184    19781   43.35%
   8454  2098     1170.4672     1      818.6452     1173.5184    19782   43.35%
   8674  2655     1170.4672     2      818.6452     1173.5184    23700   43.35%
   8841  2169     1170.4672     1      818.6452     1173.5184    20738   43.35%
   9077  2390     1173.3273     1      818.6452     1173.5184    21907   43.35%
   9282  2999        cutoff            818.6452     1173.5184    26048   43.35%
   9472  2875        cutoff            818.6452     1173.5184    25168   43.35%
Elapsed time = 60.14 sec. (36560.89 ticks, tree = 18.34 MB, solutions = 2)
   9664  2600     1089.5099     1      818.6452     1173.5184    23381   43.35%
   9862  3242        cutoff            818.6452     1173.5184    28233   43.35%
  10063  2845     1078.1298     3      818.6452     1173.5184    25062   43.35%
  10244  2759        cutoff           1017.6485     1173.5184    24422   15.32%
  10428  2887     1095.6868     1     1017.6485     1173.5184    25179   15.32%
  10590  2811        cutoff           1045.8029     1173.5184    28647   12.21%
  10752  2943     1089.5099     1     1045.8029     1173.5184    25629   12.21%
  10913  3023        cutoff           1045.8029     1173.5184    26093   12.21%
  11067  2835        cutoff           1045.8029     1173.5184    28946   12.21%
  11198  2814     1146.1323     1     1045.8029     1173.5184    28654   12.21%
Elapsed time = 69.39 sec. (46179.04 ticks, tree = 18.17 MB, solutions = 4)
  11331  2815     1146.1323     3     1045.8029     1173.5184    28658   12.21%
  11426  2884     1136.9373     1     1045.8029     1173.5184    28316   12.21%
  11525  2855        cutoff           1045.8029     1173.5184    28259   12.21%
  11595  2842        cutoff           1045.8029     1173.5184    29016   12.21%
  11655  2869     1173.3273     1     1045.8029     1173.5184    28377   12.21%
* 11663+ 2124                         1062.1293     1173.5184            10.49%
  11663  2146    infeasible           1062.1293     1173.5184    35959   10.49%
  13929  1293     1114.4908     7     1066.5996     1173.5184    46407   10.02%
  20978  3157     1151.3064     5     1066.5996     1173.5184    65748   10.02%
  26772  6284     1145.0336     5     1066.5996     1161.7455    96812    8.92%
  31978  8055     1151.3064     6     1066.5996     1159.5287   112823    8.71%
Elapsed time = 90.48 sec. (57065.78 ticks, tree = 29.46 MB, solutions = 6)
  42049  8415     1151.3064     7     1066.5996     1155.1984   116194    8.31%
  49552 11394     1116.2454     5     1066.5996     1155.1984   150928    8.31%
  56320 12564        cutoff           1066.5996     1152.0466   174975    8.01%
  63603 14098        cutoff           1066.5996     1151.3064   198965    7.94%
  67850 14611     1116.2454     6     1066.5996     1151.3064   209606    7.94%
  69528 15674     1121.2749     6     1066.5996     1151.3064   230876    7.94%
  73813 16458     1114.4908     5     1066.5996     1151.3064   245845    7.94%
  78011 16400     1114.4908     8     1066.5996     1151.3064   244979    7.94%
  81729 16835     1070.7627     9     1066.5996     1151.3064   251349    7.94%
  85824 18386     1126.8703     6     1066.5996     1151.3064   274140    7.94%
Elapsed time = 131.77 sec. (66610.01 ticks, tree = 72.82 MB, solutions = 6)
  91586 22705     1137.2889     4     1066.5996     1151.3064   325676    7.94%
  97229 22068        cutoff           1066.5996     1151.3064   318445    7.94%
 102537 29441     1108.2180     7     1066.5996     1151.3064   393464    7.94%
 106223 25097     1114.4908     8     1066.5996     1151.3064   350631    7.94%
 107810 27231     1119.1807     8     1066.5996     1151.3064   371337    7.94%
 111011 28677     1108.2180     7     1066.5996     1151.3064   385480    7.94%
 114398 28891     1108.2180     7     1066.5996     1151.3064   387432    7.94%
 116534 31466     1108.2180     7     1066.5996     1151.3064   415377    7.94%

Root node processing (before b&c):
  Real time             =    7.34 sec. (4870.37 ticks)
Parallel b&c, 32 threads:
  Real time             =  126.53 sec. (70131.74 ticks)
  Sync time (average)   =    1.00 sec.
  Wait time (average)   =    0.11 sec.
                          ------------
Total (root+branch&cut) =  133.88 sec. (75002.11 ticks)

Solution pool: 6 solutions saved.

MIP - Deterministic time limit exceeded, integer feasible:  Objective =  1.0665995623e+03
Current MIP best bound =  1.1372888582e+03 (gap = 70.6893, 6.63%)
Solution time =  133.92 sec.  Iterations = 452581  Nodes = 116975 (34241)
Deterministic time = 75002.26 ticks  (560.04 ticks/sec)

CPLEX> Incumbent solution written to file 'C:\Users\llavin\Desktop\test919\logs\tmp_ql6m1d2.cplex.sol'.
CPLEX> NOTE: no warmstart specified for MIP iteration, default behavior is true
NOTE: resolving with all competitive generators using storage-only solution to warmstart
Solving...

Welcome to IBM(R) ILOG(R) CPLEX(R) Interactive Optimizer 12.9.0.0
  with Simplex, Mixed Integer & Barrier Optimizers
5725-A06 5725-A29 5724-Y48 5724-Y49 5724-Y54 5724-Y55 5655-Y21
Copyright IBM Corp. 1988, 2019.  All Rights Reserved.

Type 'help' for a list of available commands.
Type 'help' followed by a command name for more
information on commands.

CPLEX> Logfile 'cplex.log' closed.
Logfile 'C:\Users\llavin\Desktop\test919\logs\tmp7800sy8b.cplex.log' open.
CPLEX> New value for parallel optimization mode: -1
CPLEX> New value for mixed integer optimality gap tolerance: 0.01
CPLEX> New value for integrality tolerance: 1e-09
CPLEX> New value for feasibility tolerance: 0.01
CPLEX> New value for deterministic time limit in ticks: 75000
CPLEX> Problem 'C:\Users\llavin\Desktop\test919\logs\tmprxswselv.pyomo.lp' read.
Read time = 0.23 sec. (14.81 ticks)
CPLEX> MIP start file 'C:\Users\llavin\Desktop\test919\logs\tmpsoplssd1.cplex.mst' read.
CPLEX> Problem name         : C:\Users\llavin\Desktop\test919\logs\tmprxswselv.pyomo.lp
Objective sense      : Maximize
Variables            :   54525  [Nneg: 1,  Box: 22720,  Free: 4464,
                                 Binary: 27340]
Objective nonzeros   :    9725
Linear constraints   :  123205  [Less: 41346,  Greater: 59096,  Equal: 22763]
  Nonzeros           :  291753
  RHS nonzeros       :   67491

Variables            : Min LB: -5000.000        Max UB: 1000000.       
Objective nonzeros   : Min   : 0.7833333        Max   : 2500.000       
Linear constraints   :
  Nonzeros           : Min   : 0.7833333        Max   : 1000000.       
  RHS nonzeros       : Min   : 0.7833333        Max   : 1000000.       
CPLEX> CPXPARAM_Parallel                                -1
CPXPARAM_Simplex_Tolerances_Feasibility          0.01
CPXPARAM_DetTimeLimit                            75000
CPXPARAM_MIP_Tolerances_MIPGap                   0.01
CPXPARAM_MIP_Tolerances_Integrality              1.0000000000000001e-09
Warning:  No solution found from 1 MIP starts.
Retaining values of one MIP start for possible repair.
Tried aggregator 3 times.
MIP Presolve eliminated 88722 rows and 19766 columns.
MIP Presolve added 3372 rows and 0 columns.
MIP Presolve modified 24845 coefficients.
Aggregator did 12970 substitutions.
Reduced MIP has 24885 rows, 21233 columns, and 70971 nonzeros.
Reduced MIP has 8392 binaries, 0 generals, 0 SOSs, and 0 indicators.
Presolve time = 0.30 sec. (173.86 ticks)
Probing fixed 386 vars, tightened 2831 bounds.
Probing time = 1.22 sec. (898.25 ticks)
Tried aggregator 2 times.
MIP Presolve eliminated 869 rows and 774 columns.
MIP Presolve modified 2213 coefficients.
Aggregator did 43 substitutions.
Reduced MIP has 23973 rows, 20416 columns, and 68320 nonzeros.
Reduced MIP has 8006 binaries, 0 generals, 0 SOSs, and 0 indicators.
Presolve time = 0.11 sec. (67.44 ticks)
Probing time = 0.03 sec. (16.12 ticks)
Clique table members: 6356.
MIP emphasis: balance optimality and feasibility.
MIP search method: dynamic search.
Parallel mode: opportunistic, using up to 32 threads.
Root relaxation solution time = 0.52 sec. (366.10 ticks)

        Nodes                                         Cuts/
   Node  Left     Objective  IInf  Best Integer    Best Bound    ItCnt     Gap

      0     0    90641.5444  2078                  90641.5444     7782         
      0     0    89978.8124   560                   Cuts: 886     8221         
      0     0    89800.3381   422                   Cuts: 576     8411         
      0     0    89773.0884   369                   Cuts: 261     8499         
      0     0    89772.2047   354                   Cuts: 115     8532         
      0     0    89772.2047   346                   Cuts: 107     8542         
      0     0    89772.2047   346                Flowcuts: 36     8542         
Repair heuristic found nothing.
      0    21    85342.4382   344                     Cuts: 4     8717         
Elapsed time = 9.80 sec. (6040.11 ticks, tree = 0.02 MB, solutions = 0)
    454    93    85901.2429   310                  87715.6666     9565         
    981   527    75932.0599   303                  87715.6666    13217         
   1520   832    84697.0455   273                  87715.6666    15911         
   2134  1354    81024.0709   232                  87715.6666    21158         
   2853  1691    81664.8234   244                  87715.6666    25021         
   3733  2325    83407.6506   215                  87715.6666    29759         
   4715  2654    83159.9517   184                  87715.6666    30992         
   5621  3777    83407.6506   208                  87715.6666    33873         
   6678  4432    77462.0187   182                  87715.6666    34675         
*  8383  6972      integral     0    83407.6506    87715.6666    37865    5.17%
*  8667  6022      integral     0    85448.0509    87715.6666    36993    2.65%
   9054  7236    70904.0990   179    85448.0509    87715.6666    38338    2.65%
Elapsed time = 24.56 sec. (9201.78 ticks, tree = 59.96 MB, solutions = 6)
   9055   450        cutoff          85448.0509    87715.6666    48533    2.65%
  10254    69    86569.0666   126    85448.0509    87520.4939    49879    2.43%
  12830  1353    85455.5046    73    85448.0509    87461.6918    56042    2.36%
  13979  4144    86307.2481    64    85448.0509    87289.8162    71616    2.16%
  15579  3998    86143.8451    61    85448.0509    87162.9172    70514    2.01%
* 16909  5646      integral     0    85845.6819    87162.9172    80870    1.53%
  19972  4231    85864.3517    39    85930.4426    86943.1447    82295    1.18%
  22499  4125    86035.6584    54    85934.1407    86842.6255    89156    1.06%
  23496  4842    86089.9085    75    85934.1407    86842.6255   105218    1.06%

GUB cover cuts applied:  1
Clique cuts applied:  32
Cover cuts applied:  5
Implied bound cuts applied:  6
Flow cuts applied:  440
Mixed integer rounding cuts applied:  31
Gomory fractional cuts applied:  51

Root node processing (before b&c):
  Real time             =    8.45 sec. (6015.36 ticks)
Parallel b&c, 32 threads:
  Real time             =   54.88 sec. (16433.93 ticks)
  Sync time (average)   =    4.48 sec.
  Wait time (average)   =    0.23 sec.
                          ------------
Total (root+branch&cut) =   63.33 sec. (22449.29 ticks)

Solution pool: 10 solutions saved.

MIP - Integer optimal, tolerance (0.01/1e-06):  Objective =  8.5934140653e+04
Current MIP best bound =  8.6789533511e+04 (gap = 855.393, 1.00%)
Solution time =   63.36 sec.  Iterations = 115775  Nodes = 23782 (6472)
Deterministic time = 22449.45 ticks  (354.32 ticks/sec)

CPLEX> Incumbent solution written to file 'C:\Users\llavin\Desktop\test919\logs\tmpiudzjwtp.cplex.sol'.
CPLEX> Exporting results... 
